NAME: SYNTHETIC-M-n36-k5
COMMENT: Synthetic instance, optimal estimate: 360.4, min vehicles: 3
TYPE: CVRP
DIMENSION: 36
EDGE_WEIGHT_TYPE: EUC_2D
CAPACITY: 100
NODE_COORD_SECTION
1 0.0 0.0
2 18.0 6.5
3 32.7 2.2
4 28.9 -3.4
5 28.1 -3.1
6 32.9 3.5
7 29.6 5.1
8 32.0 -10.9
9 -2.2 17.4
10 8.9 26.9
11 7.5 25.8
12 -9.7 26.0
13 6.3 19.3
14 13.2 18.3
15 1.0 24.6
16 -24.4 19.8
17 -28.5 16.3
18 -26.1 19.8
19 -27.0 6.1
20 -17.3 16.9
21 -20.6 13.2
22 -22.5 16.2
23 -20.3 -13.9
24 -18.9 -19.1
25 -14.7 -15.1
26 -17.1 -13.5
27 -24.9 -18.4
28 -15.5 -10.2
29 -21.9 -17.2
30 3.3 -20.7
31 9.7 -26.0
32 7.0 -17.5
33 7.8 -19.7
34 11.9 -21.2
35 4.6 -20.8
36 -4.0 -26.2
DEMAND_SECTION
1 0
2 26
3 3
4 5
5 6
6 4
7 3
8 5
9 28
10 3
11 1
12 8
13 7
14 6
15 6
16 10
17 11
18 5
19 6
20 14
21 4
22 3
23 6
24 8
25 1
26 22
27 1
28 25
29 7
30 7
31 5
32 5
33 2
34 1
35 7
36 8
DEPOT_SECTION
1
-1
EOF
